
Gurobi 11.0.0 (win64) logging started Sat Jun 15 09:55:31 2024

Set parameter LogFile to value "./GurobiLog/stage_2_iter_12.log"
Gurobi Optimizer version 11.0.0 build v11.0.0rc2 (win64 - Windows 10.0 (18363.2))

CPU model: Intel(R) Core(TM) i7-8700 CPU @ 3.20GHz, instruction set [SSE2|AVX|AVX2]
Thread count: 6 physical cores, 12 logical processors, using up to 1 threads

Optimize a model with 1493 rows, 20462 columns and 88582 nonzeros
Coefficient statistics:
  Matrix range     [1e-02, 7e+03]
  Objective range  [1e-01, 2e+05]
  Bounds range     [3e+00, 4e+05]
  RHS range        [1e+00, 7e+04]
LP warm-start: use basis
Iteration    Objective       Primal Inf.    Dual Inf.      Time
       0    2.2112631e+04   9.000294e+02   0.000000e+00      0s
     129    2.4744330e+04   0.000000e+00   0.000000e+00      0s

Solved in 129 iterations and 0.02 seconds (0.01 work units)
Optimal objective  2.474432953e+04

Gurobi 11.0.0 (win64) logging started Sat Jun 15 10:53:43 2024

Set parameter LogFile to value "./GurobiLog/stage_2_iter_12.log"
Gurobi Optimizer version 11.0.0 build v11.0.0rc2 (win64 - Windows 10.0 (18363.2))

CPU model: Intel(R) Core(TM) i7-8700 CPU @ 3.20GHz, instruction set [SSE2|AVX|AVX2]
Thread count: 6 physical cores, 12 logical processors, using up to 1 threads

Optimize a model with 1493 rows, 20462 columns and 88633 nonzeros
Coefficient statistics:
  Matrix range     [3e-03, 1e+04]
  Objective range  [1e-01, 2e+05]
  Bounds range     [1e+00, 5e+05]
  RHS range        [1e+00, 6e+04]
LP warm-start: use basis
Iteration    Objective       Primal Inf.    Dual Inf.      Time
       0    2.0052683e+04   1.006650e+04   0.000000e+00      0s
     108    2.7270247e+04   0.000000e+00   0.000000e+00      0s

Solved in 108 iterations and 0.01 seconds (0.00 work units)
Optimal objective  2.727024675e+04
